6
12
180
6
4
0
1
2
3
4
4
5
6
7
4
8
9
10
11
2
0
1
2
2
3
2
4
5
2
6
7
2
8
9
2
10
11
1 1 0 1 0 1 0 0
0 1 1 1 0 1 0 0
0 1 0 1 1 1 1 0
0 1 1 1 0 1 0 1
1 1 1 1 0 1 1 0
0 1 0 1 1 1 0 0
0 1 0 1 1 1 1 0
0 1 0 1 0 1 0 1
1 1 1 1 1 1 0 0
0 1 1 1 0 1 0 1
1 1 1 1 0 1 1 0
0 1 0 1 1 1 0 0
1 1 0 1 1 1 0 1
1 1 1 1 0 1 0 1
0 1 0 1 1 1 1 0
0 1 0 1 0 1 0 1
1 1 0 1 1 1 1 0
0 1 0 1 0 1 0 0
0 1 0 1 0 1 1 0
1 1 1 1 1 1 1 0
0 1 1 1 0 1 0 0
1 1 1 1 1 1 0 1
0 1 0 1 0 1 1 1
0 1 0 1 0 1 0 0
1 1 0 1 0 1 0 1
0 1 1 1 0 1 1 0
1 1 0 1 0 1 0 0
0 1 1 1 0 1 1 1
1 1 0 1 0 1 0 0
1 1 0 1 1 1 0 1
0 1 0 1 0 1 0 1
0 1 0 1 0 1 1 0
1 1 1 1 0 1 0 0
1 1 1 1 0 1 1 1
1 1 0 1 0 1 1 0
0 1 1 1 0 1 0 1